70
683
7
93
55
44
21
97
68
4
0 7
0 8
0 11
0 13
0 16
0 17
0 29
0 32
0 40
0 46
0 48
0 61
0 62
1 2
1 5
1 10
1 12
1 16
1 21
1 24
1 40
1 41
1 47
1 50
1 52
1 54
1 56
1 58
1 60
1 61
2 3
2 18
2 21
2 23
2 24
2 25
2 28
2 33
2 37
2 52
2 55
2 56
2 58
2 61
2 64
2 68
3 7
3 12
3 16
3 21
3 23
3 24
3 29
3 30
3 34
3 42
3 49
3 56
3 60
3 63
3 65
4 8
4 10
4 21
4 22
4 26
4 34
4 37
4 41
4 43
4 44
4 50
4 51
4 52
4 64
4 66
4 68
5 10
5 17
5 21
5 22
5 30
5 32
5 37
5 41
5 44
5 50
5 52
5 53
5 54
5 55
5 56
5 57
5 59
5 67
5 68
5 69
6 9
6 10
6 12
6 14
6 16
6 17
6 23
6 28
6 31
6 34
6 41
6 47
6 50
6 51
6 55
6 56
6 63
6 64
6 66
7 9
7 17
7 18
7 20
7 21
7 24
7 25
7 27
7 29
7 33
7 36
7 39
7 40
7 47
7 50
7 53
7 61
7 67
8 12
8 15
8 18
8 20
8 24
8 25
8 29
8 30
8 34
8 36
8 40
8 48
8 56
8 57
8 62
8 66
8 68
9 10
9 13
9 18
9 20
9 21
9 24
9 26
9 29
9 34
9 37
9 39
9 53
9 54
9 56
9 57
9 61
9 64
10 14
10 16
10 22
10 25
10 27
10 30
10 33
10 37
10 40
10 42
10 45
10 46
10 56
10 60
10 61
10 63
10 68
10 69
11 15
11 17
11 27
11 31
11 38
11 40
11 52
11 53
11 56
11 65
11 66
11 69
12 13
12 16
12 21
12 25
12 27
12 30
12 35
12 37
12 38
12 39
12 40
12 50
12 53
12 56
12 59
12 61
12 67
12 69
13 15
13 16
13 21
13 23
13 32
13 35
13 41
13 43
13 45
13 48
13 49
13 52
13 55
13 57
13 58
13 61
13 64
13 65
13 68
14 16
14 17
14 20
14 22
14 23
14 34
14 36
14 37
14 42
14 46
14 51
14 56
14 59
14 67
15 19
15 20
15 21
15 23
15 30
15 34
15 35
15 38
15 40
15 42
15 44
15 45
15 50
15 56
15 60
15 61
16 18
16 26
16 30
16 31
16 34
16 35
16 37
16 39
16 41
16 42
16 45
16 48
16 49
16 51
16 60
16 66
17 25
17 27
17 35
17 38
17 44
17 47
17 53
17 69
18 19
18 21
18 24
18 25
18 26
18 27
18 30
18 35
18 36
18 42
18 47
18 52
18 58
18 60
18 69
19 20
19 22
19 23
19 34
19 41
19 42
19 48
19 50
19 51
19 52
19 56
19 58
19 59
19 64
19 67
20 22
20 30
20 34
20 35
20 37
20 38
20 43
20 45
20 46
20 51
20 54
20 55
20 56
20 62
20 63
20 67
21 23
21 24
21 35
21 40
21 45
21 52
21 54
21 55
21 59
21 62
21 66
21 68
22 25
22 33
22 36
22 41
22 44
22 45
22 48
22 49
22 51
22 54
22 62
22 63
22 64
23 24
23 26
23 30
23 36
23 37
23 38
23 39
23 40
23 41
23 42
23 44
23 45
23 49
23 50
23 54
23 59
23 62
23 64
24 40
24 41
24 42
24 51
24 54
24 56
24 60
25 27
25 29
25 30
25 32
25 35
25 36
25 38
25 40
25 42
25 44
25 47
25 48
25 56
25 57
25 62
25 63
25 65
25 66
25 69
26 38
26 39
26 40
26 41
26 43
26 45
26 48
26 52
26 53
26 56
26 60
26 62
26 63
26 69
27 33
27 35
27 37
27 38
27 45
27 50
27 51
27 52
27 54
27 55
27 56
27 61
27 65
27 69
28 30
28 34
28 35
28 41
28 42
28 44
28 45
28 48
28 49
28 54
28 56
28 57
28 61
28 63
29 35
29 36
29 39
29 40
29 42
29 43
29 44
29 45
29 47
29 49
29 51
29 52
29 58
30 43
30 45
30 47
30 49
30 58
30 59
30 61
30 63
30 67
30 68
30 69
31 38
31 48
31 54
31 56
31 66
31 69
32 34
32 36
32 37
32 39
32 40
32 41
32 45
32 46
32 57
32 61
32 62
33 37
33 41
33 47
33 48
33 51
33 53
33 58
33 61
33 62
33 63
33 66
33 68
34 41
34 42
34 43
34 47
34 49
34 54
34 56
34 60
34 69
35 37
35 40
35 42
35 44
35 46
35 51
35 58
35 59
35 62
35 64
35 65
35 69
36 39
36 46
36 47
36 53
36 60
36 62
36 68
36 69
37 38
37 39
37 40
37 42
37 48
37 53
37 56
37 64
37 69
38 39
38 47
38 49
38 50
38 51
38 55
38 57
38 60
38 62
38 64
38 65
38 67
38 68
39 41
39 45
39 49
39 50
39 52
39 61
39 62
39 66
40 41
40 44
40 45
40 46
40 47
40 49
40 52
40 55
40 60
40 61
40 63
40 65
41 48
41 53
41 54
41 60
42 47
42 48
42 52
42 53
42 60
43 44
43 46
43 48
43 49
43 56
43 61
43 66
43 68
44 45
44 50
44 56
44 58
44 59
44 60
44 63
44 64
45 46
45 55
45 59
45 68
46 49
46 51
46 54
46 56
46 57
46 60
46 65
46 68
46 69
47 49
47 52
47 53
47 56
47 57
47 58
47 59
47 64
47 66
47 68
48 49
48 51
48 55
48 59
48 64
48 66
48 69
49 53
49 54
49 62
49 65
50 51
50 59
50 61
50 63
50 65
51 55
51 58
51 60
51 61
51 63
52 54
52 56
52 57
52 59
53 56
53 65
54 57
54 60
54 69
55 58
55 60
55 62
55 64
55 66
55 68
56 57
56 59
56 60
56 66
57 58
57 59
57 61
57 63
57 66
57 68
58 59
59 60
59 61
59 62
59 66
59 68
60 65
60 67
61 62
61 63
61 67
63 65
63 66
63 68
64 66
64 67
65 67
65 68
65 69
47 19 26 62 33 28 9 41 67 34
43 39 29 10 21 17 44 27 65 59
16 45 66 32 30 6 68 11 12 51
60 69 49 38 20 37 42 8 5 53
63 31 40 3 55 56 64 24 1 57
18 54 36 35 15 2 4 25 50 58
7 0 13 14 46 52 61 22 48 23
